\ENCODING=ISO-8859-1
\Problem name: mas74.mps

Maximize
 obj: -0.00001 x1               -0.00001 x2               -0.00001 x3               -0.00001 x4               -0.00001 x5               -0.00001 x6               -0.00001 x7               -0.00001 x8               -0.00001 x9               -0.00001 x10              -0.00001 x11              -0.00001 x12              -0.00001 x13              -0.00001 x14              -0.00001 x15              -0.00001 x16              -0.00001 x17              -0.00001 x18              -0.00001 x19              -0.00001 x20              -0.00001 x21              -0.00001 x22              -0.00001 x23              -0.00001 x24              -0.00001 x25              -0.00001 x26              -0.00001 x27              -0.00001 x28              -0.00001 x29              -0.00001 x30              -0.00001 x31              -0.00001 x32              -0.00001 x33              -0.00001 x34              -0.00001 x35              -0.00001 x36              -0.00001 x37              -0.00001 x38              -0.00001 x39              -0.00001 x40              -0.00001 x41              -0.00001 x42              -0.00001 x43              -0.00001 x44              -0.00001 x45              -0.00001 x46              -0.00001 x47              -0.00001 x48              -0.00001 x49              -0.00001 x50              -0.00001 x51              -0.00001 x52              -0.00001 x53              -0.00001 x54              -0.00001 x55              -0.00001 x56              -0.00001 x57              -0.00001 x58              -0.00001 x59              -0.00001 x60              -0.00001 x61              -0.00001 x62              -0.00001 x63              -0.00001 x64              -0.00001 x65              -0.00001 x66              -0.00001 x67              -0.00001 x68              -0.00001 x69              -0.00001 x70              -0.00001 x71              -0.00001 x72              -0.00001 x73              -0.00001 x74              -0.00001 x75              -0.00001 x76              -0.00001 x77              -0.00001 x78              -0.00001 x79              -0.00001 x80              -0.00001 x81              -0.00001 x82              -0.00001 x83              -0.00001 x84              -0.00001 x85              -0.00001 x86              -0.00001 x87              -0.00001 x88              -0.00001 x89              -0.00001 x90              -0.00001 x91              -0.00001 x92              -0.00001 x93              -0.00001 x94              -0.00001 x95              -0.00001 x96              -0.00001 x97              -0.00001 x98              -0.00001 x99              -0.00001 x100             -0.00001 x101             -0.00001 x102             -0.00001 x103             -0.00001 x104             -0.00001 x105             -0.00001 x106             -0.00001 x107             -0.00001 x108             -0.00001 x109             -0.00001 x110             -0.00001 x111             -0.00001 x112             -0.00001 x113             -0.00001 x114             -0.00001 x115             -0.00001 x116             -0.00001 x117             -0.00001 x118             -0.00001 x119             -0.00001 x120             -0.00001 x121             -0.00001 x122             -0.00001 x123             -0.00001 x124             -0.00001 x125             -0.00001 x126             -0.00001 x127             -0.00001 x128             -0.00001 x129             -0.00001 x130             -0.00001 x131             -0.00001 x132             -0.00001 x133             -0.00001 x134             -0.00001 x135             -0.00001 x136             -0.00001 x137             -0.00001 x138             -0.00001 x139             -0.00001 x140             -0.00001 x141             -0.00001 x142             -0.00001 x143             -0.00001 x144             -0.00001 x145             -0.00001 x146             -0.00001 x147             -0.00001 x148             -0.00001 x149             -0.00001 x150             -1 x151
Subject To
 c1:  x1 + x2 + x3 + x4 + x5 + x6 + x7 + x8 + x9 + x10 + x11 + x12 + x13 + x14
      + x15 + x16 + x17 + x18 + x19 + x20 + x21 + x22 + x23 + x24 + x25 + x26
      + x27 + x28 + x29 + x30 + x31 + x32 + x33 + x34 + x35 + x36 + x37 + x38
      + x39 + x40 + x41 + x42 + x43 + x44 + x45 + x46 + x47 + x48 + x49 + x50
      + x51 + x52 + x53 + x54 + x55 + x56 + x57 + x58 + x59 + x60 + x61 + x62
      + x63 + x64 + x65 + x66 + x67 + x68 + x69 + x70 + x71 + x72 + x73 + x74
      + x75 + x76 + x77 + x78 + x79 + x80 + x81 + x82 + x83 + x84 + x85 + x86
      + x87 + x88 + x89 + x90 + x91 + x92 + x93 + x94 + x95 + x96 + x97 + x98
      + x99 + x100 + x101 + x102 + x103 + x104 + x105 + x106 + x107 + x108
      + x109 + x110 + x111 + x112 + x113 + x114 + x115 + x116 + x117 + x118
      + x119 + x120 + x121 + x122 + x123 + x124 + x125 + x126 + x127 + x128
      + x129 + x130 + x131 + x132 + x133 + x134 + x135 + x136 + x137 + x138
      + x139 + x140 + x141 + x142 + x143 + x144 + x145 + x146 + x147 + x148
      + x149 + x150 <= 20
 c2:  3857.5340376 x1 + 125.76760563 x2 + 7165.7769953 x3 + 2876 x4 + 9723 x5
      + 7310 x6 + 1529 x7 + 1585 x8 + 2949 x9 + 7097 x10 + 1239 x11 + 6449 x12
      + 4596.07277 x13 + 8037 x14 + 7123 x15 + 8067 x16 + 5704 x17 + 1582 x18
      + 8713 x19 + 9232 x20 + 3371 x21 + 2637 x22 + 7131 x23 + 418.3028169 x24
      + 3647 x25 + 5688.4859155 x26 + 7832.5997653 x27 + 4409.1255869 x28
      + 1053 x29 + 2869 x30 + 5410 x31 + 3948 x32 + 6049 x33 + 9317 x34
      + 6880 x35 + 3779 x36 + 3641 x37 + 5567 x38 + 2197 x39 + 2842 x40
      + 4846 x41 + 4616 x42 + 8807 x43 + 3261 x44 + 3553 x45 + 5239 x46
      + 6665 x47 + 3257.4906103 x48 + 7219.556338 x49 + 2536 x50 + 8013 x51
      + 3541 x52 + 8080 x53 + 5593.0586854 x54 + 5036 x55 + 1782 x56 + 3895 x57
      + 4205 x58 + 7772 x59 + 9326 x60 + 4757 x61 + 5355 x62 + 1919 x63
      + 7510.5774648 x64 + 7341 x65 + 8541 x66 + 8352 x67 + 3291 x68 + 7328 x69
      + 4506 x70 + 4429 x71 + 4593 x72 + 9138 x73 + 3731.7664319 x74
      + 5124.2922535 x75 + 4378 x76 + 3647 x77 + 3795 x78 + 2912 x79 + 8830 x80
      + 5445 x81 + 6112 x83 + 8841 x84 + 1236 x85 + 7010 x86 + 2909 x87
      + 7622 x88 + 7393 x89 + 8317.6971831 x90 + 1950 x91 + 4654 x92 + 2255 x93
      + 7104 x94 + 7534.7887324 x95 + 2054 x96 + 6682 x97 + 3234 x98 + 2842 x99
      + 3974 x100 + 3624 x101 + 5415 x102 + 2246 x103 + 8590 x104 + 2633 x105
      + 4655 x106 + 2923 x107 + 6318 x108 + 7440 x109 + 4579 x110 + 8342 x111
      + 3813.4002347 x112 + 6268 x113 + 8570 x114 + 9838 x115 + 4876 x116
      + 418.3028169 x117 + 4922 x118 + 3590 x119 + 7152 x120 + 7056 x121
      + 9136 x122 + 7850 x123 + 6863 x124 + 9356 x125 + 2933 x126 + 2665 x127
      + 4063 x128 + 7502 x129 + 1966 x130 + 4540 x131 + 1370 x132 + 9828 x133
      + 9376 x134 + 3856.6326291 x135 + 1996 x136 + 5320 x137
      + 3107.4788732 x138 + 1645 x139 + 2890.0046948 x140 + 4920 x141
      + 8107 x142 + 6103 x143 + 4970 x144 + 1582 x145 + 6146 x146 + 6295 x147
      + 8177 x148 + 5339 x149 + 9936 x150 + x151 >= 157344.61033
 c3:  4264 x1 + 5339 x2 + 7227.5 x3 + 2876 x4 + 7310 x6 + 1529 x7 + 1585 x8
      + 2949 x9 + 5404.8448466 x10 + 1239 x11 + 8128.2443156 x12
      + 2473.8400699 x13 + 8037 x14 + 7123 x15 + 5704 x17 + 1582 x18 + 4035 x21
      + 2637 x22 + 2505.925667 x23 + 9861 x24 + 3647 x25 + 5478.2871361 x26
      + 5665.9031945 x27 + 5880 x28 + 1053 x29 + 2869 x30 + 5410 x31 + 3948 x32
      + 6049 x33 + 6880 x35 + 3779 x36 + 3641 x37 + 5567 x38 + 2197 x39
      + 1164.8704111 x40 + 4846 x41 + 139.72342842 x42 + 3261 x44 + 3553 x45
      + 5239 x46 + 6665 x47 + 1655.7848997 x48 + 1655.7848997 x49 + 2536 x50
      + 8013 x51 + 3541 x52 + 8080 x53 + 2778.8438922 x54 + 5036 x55 + 1782 x56
      + 1724.2205458 x57 + 7772 x59 + 4757 x61 + 1919 x63 + 8722.393681 x64
      + 7341 x65 + 3291 x68 + 7328 x69 + 4506 x70 + 4429 x71 + 4593 x72
      + 4857.7089899 x74 + 7404 x75 + 4378 x76 + 3647 x77 + 3795 x78 + 2912 x79
      + 7601.2456701 x80 + 5445 x81 + 6112 x83 + 1236 x85 + 7010 x86 + 2909 x87
      + 5342.1452962 x88 + 7393 x89 + 6883.3314132 x90 + 1950 x91 + 4654 x92
      + 2255 x93 + 7104 x94 + 7435.0469687 x95 + 2054 x96 + 6682 x97 + 3234 x98
      + 1164.8704111 x99 + 3974 x100 + 3624 x101 + 5415 x102 + 1582 x103
      + 2633 x105 + 4655 x106 + 2923 x107 + 6318 x108 + 7440 x109 + 4579 x110
      + 8342 x111 + 5050 x112 + 6268 x113 + 8570 x114 + 4876 x116 + 9861 x117
      + 4922 x118 + 3590 x119 + 7152 x120 + 7056 x121 + 4655 x123 + 6863 x124
      + 2933 x126 + 2665 x127 + 4063 x128 + 4120.6364834 x129 + 1966 x130
      + 4540 x131 + 1370 x132 + 2379.6660405 x135 + 1996 x136 + 5320 x137
      + 5533.7993219 x138 + 1645 x139 + 4365 x140 + 4920 x141 + 8107 x142
      + 6103 x143 + 4970 x144 + 1582 x145 + 6146 x146 + 6295 x147 + 8177 x148
      + 6015.5 x149 + 9936 x150 + x151 >= 110007.77718
 c4:  4264 x1 + 5339 x2 + 5876.7923949 x3 + 2876 x4 + 9723 x5 + 7310 x6
      + 1529 x7 + 1585 x8 + 2949 x9 + 7097 x10 + 1239 x11 + 3263.9478854 x12
      + 4787.9998652 x13 + 3932.0774689 x15 + 4508 x16 + 5383.2865918 x17
      + 1007.7206724 x18 + 8713 x19 + 9232 x20 + 3733.6777996 x21 + 2637 x22
      + 2622.9478854 x23 + 5572.0948907 x24 + 3647 x25 + 8494 x26
      + 1590.9888423 x27 + 5880 x28 + 1053 x29 + 2869 x30 + 5410 x31 + 3948 x32
      + 6049 x33 + 1928.2865918 x35 + 3779 x36 + 3641 x37 + 5567 x38 + 2197 x39
      + 2842 x40 + 4846 x41 + 4616 x42 + 8807 x43 + 3261 x44 + 3553 x45
      + 5239 x46 + 6665 x47 + 8172 x48 + 5587.4533223 x49 + 2536 x50
      + 509.74314193 x52 + 5130.4842654 x54 + 5036 x55 + 1782 x56
      + 476.85677148 x57 + 4205 x58 + 2026.2568581 x61 + 5355 x62 + 1919 x63
      + 3652.6973102 x64 + 8541 x66 + 8352 x67 + 3291 x68 + 4506 x70 + 4429 x71
      + 4593 x72 + 6903.6330621 x73 + 4972.5996947 x74 + 4006.8453527 x75
      + 4378 x76 + 3647 x77 + 3795 x78 + 2912 x79 + 5445 x81 + 6112 x83
      + 8841 x84 + 1236 x85 + 7010 x86 + 1599.0521146 x87 + 7622 x88 + 1950 x91
      + 4654 x92 + 2255 x93 + 7104 x94 + 7744 x95 + 2054 x96 + 6682 x97
      + 3234 x98 + 2842 x99 + 3974 x100 + 3624 x101 + 5415 x102 + 2246 x103
      + 8590 x104 + 2633 x105 + 4655 x106 + 2923 x107 + 5080.614002 x109
      + 4579 x110 + 4677.0111577 x112 + 6268 x113 + 2157.614002 x116
      + 5572.0948907 x117 + 4922 x118 + 3590 x119 + 7152 x120 + 7056 x121
      + 9136 x122 + 7850 x123 + 6863 x124 + 9356 x125 + 2933 x126 + 2665 x127
      + 4063 x128 + 7502 x129 + 1966 x130 + 4540 x131 + 1370 x132 + 9376 x134
      + 6443 x135 + 1996 x136 + 5320 x137 + 2524.7428057 x138 + 1645 x139
      + 499.32083911 x140 + 4920 x141 + 6103 x143 + 4970 x144
      + 1007.7206724 x145 + 6146 x146 + 6295 x147 + 8641 x149 + x151
      >= 113089.95355
 c5:  4264 x1 + 5026.3323601 x2 + 4212.5800487 x3 + 2876 x4 + 1529 x7 + 1585 x8
      + 2949 x9 + 7097 x10 + 1239 x11 + 6449 x12 + 1673.7990268 x13 + 8037 x14
      + 7123 x15 + 4902.0158151 x16 + 2299.7472019 x17 + 1582 x18 + 8713 x19
      + 4035 x21 + 2637 x22 + 7131 x23 + 2435.796837 x24 + 3647 x25
      + 1160.0158151 x26 + 1850.9749392 x27 + 5880 x28 + 1053 x29
      + 1573.9406326 x30 + 5410 x31 + 3948 x32 + 6049 x33 + 9317 x34 + 6880 x35
      + 3779 x36 + 3641 x37 + 5567 x38 + 2197 x39 + 2842 x40 + 4846 x41
      + 4616 x42 + 3261 x44 + 3553 x45 + 2665 x46 + 6665 x47 + 4492.4068127 x48
      + 4492.4068127 x49 + 2536 x50 + 3924.9124088 x51 + 3541 x52
      + 3336.9664234 x53 + 509.94136253 x54 + 5036 x55 + 1782 x56
      + 2066.1187348 x57 + 4205 x58 + 7772 x59 + 8367.2374696 x60 + 4757 x61
      + 2978.6437956 x62 + 1919 x63 + 7341 x65 + 4655 x66 + 8352 x67 + 3291 x68
      + 7328 x69 + 4506 x70 + 4429 x71 + 896.82189781 x72 + 2486.593674 x73
      + 7925.6586375 x74 + 1794.7394161 x75 + 4378 x76 + 3647 x77
      + 1205.9406326 x78 + 1205.9406326 x79 + 5445 x81 + 6112 x83 + 8841 x84
      + 1236 x85 + 2909 x87 + 7622 x88 + 7393 x89 + 8830 x90 + 1950 x91
      + 4654 x92 + 2255 x93 + 2054 x96 + 6682 x97 + 3234 x98 + 2842 x99
      + 3974 x100 + 3624 x101 + 5415 x102 + 1582 x103 + 8590 x104 + 2633 x105
      + 4655 x106 + 2923 x107 + 6318 x108 + 4579 x110 + 81.974939173 x112
      + 6268 x113 + 6831.392944 x115 + 4876 x116 + 2435.796837 x117 + 4922 x118
      + 3590 x119 + 7056 x121 + 9136 x122 + 2933 x126 + 2665 x127 + 4063 x128
      + 7502 x129 + 1966 x130 + 4540 x131 + 1370 x132 + 6682.7810219 x133
      + 5038.2167883 x135 + 1996 x136 + 4660.7472019 x137 + 6754 x138
      + 1645 x139 + 2864.8812652 x140 + 4920 x141 + 8107 x142 + 6103 x143
      + 4970 x144 + 1582 x145 + 5403.1975669 x147 + 3640.0593674 x148 + x151
      >= 107767
 c6:  4264 x1 + 5339 x2 + 2876 x4 + 9723 x5 + 1529 x7 + 1585 x8 + 2949 x9
      + 1239 x11 + 2475 x12 + 6817.4161987 x13 + 7123 x15 + 3754 x16 + 5704 x17
      + 1582 x18 + 9232 x20 + 4035 x21 + 2637 x22 + 7131 x23 + 5429.5829374 x24
      + 3647 x25 + 7496 x26 + 583.5 x27 + 5162.5 x28 + 1053 x29
      + 449.31447084 x30 + 3240.6855292 x31 + 3948 x32 + 6049 x33 + 9317 x34
      + 1950 x35 + 3779 x36 + 3641 x37 + 5567 x38 + 2197 x39 + 2842 x40
      + 4846 x41 + 4616 x42 + 8807 x43 + 3261 x44 + 3553 x45 + 5239 x46
      + 6665 x47 + 8172 x48 + 8425 x49 + 2536 x50 + 4869.6696544 x51 + 3541 x52
      + 8080 x53 + 5337.9205184 x54 + 5036 x55 + 1782 x56 + 3895 x57 + 4205 x58
      + 5256.5 x60 + 2104.6903888 x61 + 1919 x63 + 4473.0773218 x64 + 7341 x65
      + 4655 x66 + 8352 x67 + 3291 x68 + 7328 x69 + 4506 x70 + 4429 x71
      + 4593 x72 + 9138 x73 + 5052.5596112 x74 + 1174.3740821 x75 + 4378 x76
      + 3647 x77 + 3795 x78 + 2912 x79 + 8830 x80 + 5445 x81 + 6112 x83
      + 1236 x85 + 2909 x87 + 7393 x89 + 1950 x91 + 4654 x92 + 2255 x93
      + 2054 x96 + 3234 x98 + 2842 x99 + 3974 x100 + 3624 x101 + 5415 x102
      + 2246 x103 + 2633 x105 + 4655 x106 + 2923 x107 + 6318 x108 + 1739 x109
      + 4579 x110 + 8342 x111 + 1239 x112 + 1822.5 x113 + 8570 x114 + 9838 x115
      + 4876 x116 + 5429.5829374 x117 + 4922 x118 + 3590 x119 + 7152 x120
      + 6863 x124 + 9356 x125 + 2933 x126 + 2665 x127 + 4063 x128 + 1966 x130
      + 4540 x131 + 1370 x132 + 9828 x133 + 9376 x134 + 5616.8782937 x135
      + 1996 x136 + 5320 x137 + 1358.4934125 x138 + 1645 x139 + 4365 x140
      + 4920 x141 + 6103 x143 + 4970 x144 + 1582 x145 + 6146 x146 + 6295 x147
      + 8177 x148 + 8742 x149 + x151 >= 107283.94838
 c7:  4264 x1 + 5339 x2 + 3489 x3 + 2876 x4 + 7310 x6 + 1529 x7 + 1585 x8
      + 2949 x9 + 5864.7752809 x10 + 1239 x11 + 9321.7752809 x12
      + 7919.9662921 x13 + 8037 x14 + 2923 x16 + 5704 x17 + 1582 x18
      + 8171.3932584 x19 + 9232 x20 + 4600 x21 + 2637 x22 + 3525.6966292 x23
      + 3647 x25 + 4272.9662921 x27 + 5880 x28 + 1053 x29 + 2869 x30 + 5410 x31
      + 3948 x32 + 9317 x34 + 2311.7191011 x35 + 3779 x36 + 3641 x37 + 5567 x38
      + 2197 x39 + 2842 x40 + 4846 x41 + 4616 x42 + 8807 x43 + 3261 x44
      + 3553 x45 + 5239 x46 + 5877.6685393 x48 + 4262.3764045 x49 + 2536 x50
      + 7090.005618 x51 + 1074.011236 x52 + 8080 x53 + 2240.3595506 x54
      + 5036 x55 + 1782 x56 + 3895 x57 + 4205 x58 + 7106.3258427 x59 + 7383 x60
      + 3561.488764 x61 + 2033.3258427 x62 + 1919 x63 + 6121.0505618 x64
      + 8541 x66 + 3291 x68 + 4429 x70 + 4429 x71 + 4081.3146067 x72
      + 4272.9662921 x73 + 7999.5842697 x74 + 5324.3033708 x75 + 4378 x76
      + 3647 x77 + 3795 x78 + 2559.6067416 x79 + 2550.0224719 x80
      + 5008.247191 x81 + 1236 x85 + 7010 x86 + 2909 x87 + 4261.7191011 x90
      + 1950 x91 + 4654 x92 + 117.03370787 x93 + 7104 x94 + 3406.2808989 x95
      + 2054 x96 + 3234 x98 + 2675.2808989 x99 + 3974 x100 + 3624 x101
      + 5415 x102 + 2246 x103 + 8590 x104 + 40.747191011 x105 + 4655 x106
      + 2923 x107 + 4285.6853933 x108 + 6319.247191 x109 + 4579 x110
      + 8342 x111 + 3764.0337079 x112 + 5613.6853933 x115 + 4876 x116
      + 3647 x118 + 625.96629213 x119 + 7850 x123 + 6863 x124 + 9356 x125
      + 2933 x126 + 2665 x127 + 4063 x128 + 5485.988764 x129 + 1966 x130
      + 4540 x131 + 1370 x132 + 4661.988764 x133 + 5761.1011236 x135
      + 1996 x136 + 5320 x137 + 3269.2808989 x138 + 1645 x139
      + 3781.011236 x140 + 4396.0561798 x141 + 8107 x142 + 4970 x144
      + 1582 x145 + 4694 x146 + 4299.5617978 x149 + x151 >= 86376
 c8:  4264 x1 + 3236.6488464 x2 + 8260 x3 + 2876 x4 + 6884 x6 + 1529 x7
      + 1585 x8 + 2949 x9 + 1239 x11 + 5586.9236606 x13 + 7123 x15
      + 2980.0315887 x16 + 4171 x17 + 1582 x18 + 3371 x21 + 2637 x22 + 7131 x23
      + 922.29134407 x24 + 3647 x25 + 805.25526479 x26 + 2660.5892304 x27
      + 5880 x28 + 1053 x29 + 2869 x30 + 5410 x31 + 3948 x32 + 9317 x34
      + 1762.3431016 x35 + 3779 x36 + 3641 x37 + 5567 x38 + 2197 x39 + 2842 x40
      + 4846 x41 + 4616 x42 + 8807 x43 + 3261 x44 + 3553 x45 + 3338.1665376 x46
      + 2589.3009446 x48 + 2589.3009446 x49 + 2536 x50 + 6077 x51 + 3541 x52
      + 257.07955249 x54 + 5036 x55 + 1782 x56 + 3895 x57 + 4205 x58 + 7772 x59
      + 6619.0778105 x60 + 5355 x62 + 1919 x63 + 9948 x64 + 7341 x65
      + 6962.5370084 x66 + 3291 x68 + 7328 x69 + 4506 x70 + 4429 x71 + 4593 x72
      + 9138 x73 + 940.48633478 x74 + 6731.8123645 x75 + 2220.491406 x76
      + 3647 x77 + 3795 x78 + 2912 x79 + 6707 x80 + 5445 x81 + 8841 x84
      + 1236 x85 + 2909 x86 + 2909 x87 + 2953.3115129 x90 + 1950 x91 + 4654 x92
      + 2255 x93 + 7104 x94 + 7744 x95 + 2054 x96 + 1726.1613116 x97 + 3234 x98
      + 2842 x99 + 3974 x100 + 3624 x101 + 5415 x102 + 2246 x103 + 8590 x104
      + 2633 x105 + 4655 x106 + 2923 x107 + 6318 x108 + 7440 x109 + 4579 x110
      + 2660.5892304 x112 + 8570 x114 + 9838 x115 + 4876 x116
      + 922.29134407 x117 + 4922 x118 + 3590 x119 + 7152 x120 + 9136 x122
      + 5952.0905079 x123 + 2933 x126 + 2665 x127 + 4063 x128
      + 2002.5321694 x129 + 1966 x130 + 4540 x131 + 1370 x132 + 9828 x133
      + 9376 x134 + 6443 x135 + 1996 x136 + 5320 x137 + 6041.6761381 x138
      + 1645 x139 + 647 x140 + 4920 x141 + 4970 x144 + 1582 x145 + 6146 x146
      + 8177 x148 + 8742 x149 + 9936 x150 + x151 >= 107309
 c9:  4264 x1 + 5339 x2 + 8260 x3 + 2876 x4 + 6324.0237443 x5 + 7310 x6
      + 1529 x7 + 1585 x8 + 2949 x9 + 1239 x11 + 2669.5520548 x12 + 3224 x13
      + 8037 x14 + 721.8803653 x16 + 5704 x17 + 1582 x18 + 8713 x19 + 9232 x20
      + 3371 x21 + 2637 x22 + 7048.9675799 x23 + 5007.8803653 x24 + 3647 x25
      + 2201.1196347 x26 + 1631.030137 x27 + 5880 x28 + 1053 x29
      + 204.02305936 x30 + 2678.01621 x31 + 3948 x32 + 6049 x33 + 9317 x34
      + 4388.8803653 x35 + 3779 x36 + 3641 x37 + 2197 x39 + 2842 x40 + 4846 x41
      + 4616 x42 + 3261 x44 + 3553 x45 + 5239 x46 + 8172 x48 + 8425 x49
      + 2536 x50 + 1351.1242009 x51 + 3541 x52 + 6767 x54 + 5036 x55 + 1782 x56
      + 3895 x57 + 4205 x58 + 6075.1340183 x60 + 88.128310502 x61 + 5355 x62
      + 1919 x63 + 8352 x67 + 3291 x68 + 4506 x70 + 4429 x71 + 4593 x72
      + 1881.3954338 x74 + 4723.3954338 x75 + 4378 x76 + 3647 x77 + 3795 x78
      + 2912 x79 + 8830 x80 + 5445 x81 + 6112 x83 + 1236 x85 + 7010 x86
      + 2909 x87 + 7622 x88 + 7393 x89 + 6338.8803653 x90 + 1950 x91 + 4654 x92
      + 2255 x93 + 7104 x94 + 7744 x95 + 2054 x96 + 6682 x97 + 3234 x98
      + 2842 x99 + 3974 x100 + 3624 x101 + 5415 x102 + 2246 x103 + 2633 x105
      + 4655 x106 + 2923 x107 + 6318 x108 + 3677.0954338 x109
      + 1172.1497717 x110 + 8342 x111 + 2180.2694064 x112 + 6268 x113
      + 6425.2703196 x114 + 4293.1287671 x115 + 4876 x116 + 5007.8803653 x117
      + 4922 x118 + 3590 x119 + 7152 x120 + 9136 x122 + 4655 x123 + 9091 x125
      + 2933 x126 + 2665 x127 + 4063 x128 + 1966 x130 + 4540 x131 + 1370 x132
      + 9828 x133 + 7354 x134 + 6443 x135 + 1996 x136 + 5320 x137
      + 801.50639269 x138 + 1645 x139 + 4920 x140 + 4920 x141
      + 4475.8803653 x142 + 6103 x143 + 4970 x144 + 1582 x145
      + 4153.7584475 x146 + 8641 x150 + x151 >= 105490.73653
 c10: 4264 x1 + 5339 x2 + 2876 x4 + 5706.6236192 x5 + 1529 x7 + 1585 x8
      + 2949 x9 + 7097 x10 + 1239 x11 + 3270.405833 x13 + 8037 x14
      + 6814.5238232 x16 + 5704 x17 + 1582 x18 + 8713 x19 + 9232 x20 + 4600 x21
      + 2637 x22 + 7131 x23 + 4652.0215414 x24 + 3647 x25 + 3891.5238232 x26
      + 5039.7045485 x27 + 1053 x29 + 2869 x30 + 5410 x31 + 3948 x32 + 6049 x33
      + 6880 x35 + 3779 x36 + 3641 x37 + 1477.4963355 x38 + 2197 x39 + 2842 x40
      + 4846 x41 + 4616 x42 + 8807 x43 + 3261 x44 + 3553 x45 + 5239 x46
      + 8172 x48 + 8425 x49 + 2536 x50 + 8013 x51 + 3541 x52 + 8080 x53
      + 2672.975731 x54 + 5036 x55 + 1782 x56 + 3895 x57 + 4205 x58
      + 2726.2276162 x59 + 3171.9293238 x60 + 4757 x61 + 5355 x62 + 1919 x63
      + 4389.7373933 x64 + 3291 x68 + 4506 x70 + 4429 x71 + 4593 x72
      + 4769.9270193 x73 + 560.5962977 x74 + 3402.5962977 x75 + 4378 x76
      + 3647 x77 + 3795 x78 + 2912 x79 + 8830 x80 + 6112 x83 + 8841 x84
      + 1236 x85 + 7010 x86 + 2909 x87 + 7622 x88 + 7393 x89 + 4727.2211862 x90
      + 1950 x91 + 4654 x92 + 2255 x93 + 6114.1385266 x94 + 2054 x96 + 3234 x98
      + 2842 x99 + 3974 x100 + 3624 x101 + 5415 x102 + 1807.7609822 x103
      + 2633 x105 + 4655 x106 + 2923 x107 + 6318 x108 + 7440 x109
      + 3472.3863166 x110 + 3270.7045485 x112 + 6268 x113 + 8570 x114
      + 9838 x115 + 4624.3962297 x116 + 4652.0215414 x117 + 2886.5022818 x118
      + 3590 x119 + 7056 x121 + 4655 x123 + 6863 x124 + 2933 x126 + 2665 x127
      + 4063 x128 + 7502 x129 + 1966 x130 + 4540 x131 + 1370 x132 + 9828 x133
      + 9376 x134 + 2784.1324972 x135 + 1996 x136 + 2436.2770533 x137
      + 579.50663393 x138 + 1645 x139 + 3851.4963355 x140 + 4920 x141
      + 8107 x142 + 6103 x143 + 4970 x144 + 1582 x145 + 956.80938421 x146
      + 6295 x147 + 4836 x149 + 5887 x150 + x151 >= 117802.11377
 c11: 4264 x1 + 5339 x2 + 4540 x3 + 2876 x4 + 6007.4739286 x5 + 7310 x6
      + 1529 x7 + 1585 x8 + 2949 x9 + 1239 x11 + 5164.8090243 x12
      + 1287.8998662 x13 + 6755.136625 x16 + 5704 x17 + 1582 x18 + 9232 x20
      + 4600 x21 + 2637 x22 + 5166.9799255 x23 + 1899.2210109 x24 + 3647 x25
      + 3013.136625 x26 + 5571.6006929 x27 + 1053 x29 + 2869 x30 + 3948 x32
      + 6049 x33 + 3103.6850787 x35 + 3779 x36 + 3641 x37 + 5567 x38 + 2197 x39
      + 2842 x40 + 4846 x41 + 4616 x42 + 8807 x43 + 3261 x44 + 3553 x45
      + 5239 x46 + 6665 x47 + 8172 x48 + 3203.5967077 x49 + 2536 x50 + 8080 x53
      + 6767 x54 + 5036 x55 + 1782 x56 + 3895 x57 + 4205 x58 + 7772 x59
      + 4961.8312283 x60 + 2536 x61 + 5355 x62 + 1919 x63 + 5846.2742077 x64
      + 7341 x65 + 7926.8090243 x66 + 8352 x67 + 3291 x68 + 7328 x69 + 4506 x70
      + 4429 x71 + 4593 x72 + 2864.5421929 x73 + 3452.764849 x74
      + 4126.5871636 x75 + 4378 x76 + 3647 x77 + 3795 x78 + 2912 x79 + 5445 x81
      + 1236 x85 + 7010 x86 + 2909 x87 + 7622 x88 + 5053.6850787 x90 + 1950 x91
      + 1188 x92 + 2255 x93 + 7104 x94 + 7744 x95 + 2054 x96 + 6682 x97
      + 3234 x98 + 2842 x99 + 3974 x100 + 3624 x101 + 2246 x103
      + 5312.3064276 x104 + 2633 x105 + 4655 x106 + 2923 x107 + 6318 x108
      + 4579 x110 + 8342 x111 + 5050 x112 + 4575.3149213 x113 + 7133 x114
      + 5180 x115 + 4876 x116 + 1899.2210109 x117 + 4922 x118
      + 2057.4578071 x119 + 7056 x121 + 7850 x123 + 5319.7567851 x125
      + 2933 x126 + 2665 x127 + 4063 x128 + 7502 x129 + 1966 x130 + 4540 x131
      + 1370 x132 + 7435.893535 x133 + 4802.8550525 x135 + 1996 x136
      + 5320 x137 + 1645 x139 + 3400.7613107 x140 + 4920 x141 + 8107 x142
      + 4970 x144 + 1582 x145 + 6146 x146 + 4239.4996656 x147
      + 5869.4915429 x148 + 9936 x150 + x151 >= 97934
 c12: 1530.2702703 x1 + 2876 x4 + 6622.5405405 x5 + 1529 x7 + 1585 x8 + 2949 x9
      + 2091.1486486 x10 + 1239 x11 + 5210 x12 + 2116.7297297 x13 + 8037 x14
      + 421.86486486 x16 + 5704 x17 + 1582 x18 + 4035 x21 + 2637 x22 + 1313 x23
      + 3647 x25 + 421.86486486 x26 + 2940.1756757 x27 + 1053 x29 + 1053 x30
      + 5287 x31 + 3948 x32 + 5488.7162162 x34 + 4446.6621622 x35 + 3779 x36
      + 3641 x37 + 4894.9189189 x38 + 2197 x39 + 2103.3243243 x40 + 4846 x41
      + 4616 x42 + 8807 x43 + 3261 x44 + 3553 x45 + 2665 x46 + 1009.4459459 x48
      + 1009.4459459 x49 + 2536 x50 + 2956.6621622 x51 + 420.66216216 x52
      + 5036 x55 + 1782 x56 + 3895 x57 + 4205 x58 + 7772 x59 + 5919.7837838 x60
      + 5355 x62 + 1919 x63 + 6017.0810811 x64 + 5188.3918919 x65
      + 7281.4594595 x66 + 2160.4594595 x67 + 3291 x68 + 6739.2972973 x69
      + 4429 x70 + 4429 x71 + 4593 x72 + 1530.2702703 x74 + 4615.3378378 x75
      + 1530.2702703 x76 + 3647 x77 + 3795 x78 + 2912 x79 + 8830 x80 + 6112 x83
      + 1236 x85 + 1324 x86 + 2909 x87 + 7393 x89 + 6396.6621622 x90 + 1950 x91
      + 4654 x92 + 2255 x93 + 7104 x94 + 3202.5945946 x95 + 2054 x96
      + 4613.5135135 x97 + 3234 x98 + 2103.3243243 x99 + 3974 x100 + 3624 x101
      + 1582 x103 + 5392.9324324 x104 + 732.93243243 x105 + 418.45945946 x106
      + 2923 x107 + 4579 x110 + 8342 x111 + 1102 x112 + 6268 x113
      + 3225.1351351 x118 + 1866.4459459 x119 + 3625.7162162 x120 + 9136 x122
      + 7850 x123 + 6863 x124 + 9356 x125 + 2933 x126 + 2665 x127 + 4020 x128
      + 1966 x130 + 4540 x131 + 1370 x132 + 4540 x134 + 1996 x136
      + 1390.0810811 x137 + 275 x138 + 1645 x139 + 7967.1621622 x140
      + 4920 x141 + 3561.7972973 x142 + 2247.6351351 x143 + 4970 x144
      + 1582 x145 + 6146 x146 + 6295 x147 + 1942.6756757 x148 + 9936 x150
      + x151 >= 85137
 c13: 4264 x1 + 5339 x2 + 8260 x3 + 2876 x4 + 7071.525641 x5 + 7310 x6
      + 1529 x7 + 1585 x8 + 2949 x9 + 1239 x10 + 1239 x11 + 1431.2820513 x12
      + 4388 x13 + 7123 x15 + 3091.3205128 x16 + 5704 x17 + 1144.5384615 x18
      + 8713 x19 + 2933.5384615 x21 + 2637 x22 + 1662.1153846 x23 + 3647 x25
      + 2501.1474359 x26 + 1070.4038462 x27 + 5649.4038462 x28 + 1053 x29
      + 2480.7179487 x31 + 3948 x32 + 888 x34 + 3779 x36 + 3641 x37 + 5567 x38
      + 2197 x39 + 2842 x40 + 4846 x41 + 2765.2179487 x42 + 3261 x44 + 3553 x45
      + 2665 x46 + 2536 x50 + 2768 x51 + 3541 x52 + 8080 x53 + 759.60897436 x54
      + 5036 x55 + 1782 x56 + 3895 x57 + 4205 x58 + 9326 x60 + 1576.5448718 x61
      + 5355 x62 + 1919 x63 + 2995.1025641 x65 + 8541 x66 + 8352 x67 + 3291 x68
      + 4506 x70 + 4429 x71 + 4593 x72 + 9138 x73 + 7740.9358974 x74 + 7404 x75
      + 4378 x76 + 3647 x77 + 3795 x78 + 2912 x79 + 390.93589744 x80 + 5445 x81
      + 8841 x84 + 1236 x85 + 7010 x86 + 2909 x87 + 7393 x89 + 4654 x92
      + 2255 x93 + 7744 x95 + 2054 x96 + 1696.5128205 x97 + 3234 x98 + 2842 x99
      + 2670.2820513 x100 + 3624 x101 + 2246 x103 + 2633 x105 + 691 x106
      + 2923 x107 + 6318 x108 + 1402.1282051 x109 + 4579 x110 + 3445 x111
      + 3648.6794872 x112 + 4719.0833333 x113 + 2068.8974359 x115
      + 1920.724359 x116 + 1741.5064103 x118 + 899.94871795 x119 + 7152 x120
      + 3555.5641026 x121 + 7850 x123 + 6863 x124 + 7943.6794872 x125
      + 2933 x126 + 2665 x127 + 4063 x128 + 6355.8974359 x129 + 1966 x130
      + 4540 x131 + 1370 x132 + 9376 x134 + 816.93589744 x135 + 1996 x136
      + 5320 x137 + 1376.7820513 x138 + 1645 x139 + 433 x140 + 4920 x141
      + 3647 x144 + 1582 x145 + 3939 x146 + 6295 x147 + 8177 x148 + 9936 x150
      + x151 >= 94358.5
Bounds
 0 <= x1 <= 1
 0 <= x2 <= 1
 0 <= x3 <= 1
 0 <= x4 <= 1
 0 <= x5 <= 1
 0 <= x6 <= 1
 0 <= x7 <= 1
 0 <= x8 <= 1
 0 <= x9 <= 1
 0 <= x10 <= 1
 0 <= x11 <= 1
 0 <= x12 <= 1
 0 <= x13 <= 1
 0 <= x14 <= 1
 0 <= x15 <= 1
 0 <= x16 <= 1
 0 <= x17 <= 1
 0 <= x18 <= 1
 0 <= x19 <= 1
 0 <= x20 <= 1
 0 <= x21 <= 1
 0 <= x22 <= 1
 0 <= x23 <= 1
 0 <= x24 <= 1
 0 <= x25 <= 1
 0 <= x26 <= 1
 0 <= x27 <= 1
 0 <= x28 <= 1
 0 <= x29 <= 1
 0 <= x30 <= 1
 0 <= x31 <= 1
 0 <= x32 <= 1
 0 <= x33 <= 1
 0 <= x34 <= 1
 0 <= x35 <= 1
 0 <= x36 <= 1
 0 <= x37 <= 1
 0 <= x38 <= 1
 0 <= x39 <= 1
 0 <= x40 <= 1
 0 <= x41 <= 1
 0 <= x42 <= 1
 0 <= x43 <= 1
 0 <= x44 <= 1
 0 <= x45 <= 1
 0 <= x46 <= 1
 0 <= x47 <= 1
 0 <= x48 <= 1
 0 <= x49 <= 1
 0 <= x50 <= 1
 0 <= x51 <= 1
 0 <= x52 <= 1
 0 <= x53 <= 1
 0 <= x54 <= 1
 0 <= x55 <= 1
 0 <= x56 <= 1
 0 <= x57 <= 1
 0 <= x58 <= 1
 0 <= x59 <= 1
 0 <= x60 <= 1
 0 <= x61 <= 1
 0 <= x62 <= 1
 0 <= x63 <= 1
 0 <= x64 <= 1
 0 <= x65 <= 1
 0 <= x66 <= 1
 0 <= x67 <= 1
 0 <= x68 <= 1
 0 <= x69 <= 1
 0 <= x70 <= 1
 0 <= x71 <= 1
 0 <= x72 <= 1
 0 <= x73 <= 1
 0 <= x74 <= 1
 0 <= x75 <= 1
 0 <= x76 <= 1
 0 <= x77 <= 1
 0 <= x78 <= 1
 0 <= x79 <= 1
 0 <= x80 <= 1
 0 <= x81 <= 1
 0 <= x82 <= 1
 0 <= x83 <= 1
 0 <= x84 <= 1
 0 <= x85 <= 1
 0 <= x86 <= 1
 0 <= x87 <= 1
 0 <= x88 <= 1
 0 <= x89 <= 1
 0 <= x90 <= 1
 0 <= x91 <= 1
 0 <= x92 <= 1
 0 <= x93 <= 1
 0 <= x94 <= 1
 0 <= x95 <= 1
 0 <= x96 <= 1
 0 <= x97 <= 1
 0 <= x98 <= 1
 0 <= x99 <= 1
 0 <= x100 <= 1
 0 <= x101 <= 1
 0 <= x102 <= 1
 0 <= x103 <= 1
 0 <= x104 <= 1
 0 <= x105 <= 1
 0 <= x106 <= 1
 0 <= x107 <= 1
 0 <= x108 <= 1
 0 <= x109 <= 1
 0 <= x110 <= 1
 0 <= x111 <= 1
 0 <= x112 <= 1
 0 <= x113 <= 1
 0 <= x114 <= 1
 0 <= x115 <= 1
 0 <= x116 <= 1
 0 <= x117 <= 1
 0 <= x118 <= 1
 0 <= x119 <= 1
 0 <= x120 <= 1
 0 <= x121 <= 1
 0 <= x122 <= 1
 0 <= x123 <= 1
 0 <= x124 <= 1
 0 <= x125 <= 1
 0 <= x126 <= 1
 0 <= x127 <= 1
 0 <= x128 <= 1
 0 <= x129 <= 1
 0 <= x130 <= 1
 0 <= x131 <= 1
 0 <= x132 <= 1
 0 <= x133 <= 1
 0 <= x134 <= 1
 0 <= x135 <= 1
 0 <= x136 <= 1
 0 <= x137 <= 1
 0 <= x138 <= 1
 0 <= x139 <= 1
 0 <= x140 <= 1
 0 <= x141 <= 1
 0 <= x142 <= 1
 0 <= x143 <= 1
 0 <= x144 <= 1
 0 <= x145 <= 1
 0 <= x146 <= 1
 0 <= x147 <= 1
 0 <= x148 <= 1
 0 <= x149 <= 1
 0 <= x150 <= 1
 0 <= x151 <= 1000000000000
Binaries
 x1  x2  x3  x4  x5  x6  x7  x8  x9  x10  x11  x12  x13  x14  x15  x16  x17 
 x18  x19  x20  x21  x22  x23  x24  x25  x26  x27  x28  x29  x30  x31  x32 
 x33  x34  x35  x36  x37  x38  x39  x40  x41  x42  x43  x44  x45  x46  x47 
 x48  x49  x50  x51  x52  x53  x54  x55  x56  x57  x58  x59  x60  x61  x62 
 x63  x64  x65  x66  x67  x68  x69  x70  x71  x72  x73  x74  x75  x76  x77 
 x78  x79  x80  x81  x82  x83  x84  x85  x86  x87  x88  x89  x90  x91  x92 
 x93  x94  x95  x96  x97  x98  x99  x100  x101  x102  x103  x104  x105  x106 
 x107  x108  x109  x110  x111  x112  x113  x114  x115  x116  x117  x118  x119 
 x120  x121  x122  x123  x124  x125  x126  x127  x128  x129  x130  x131  x132 
 x133  x134  x135  x136  x137  x138  x139  x140  x141  x142  x143  x144  x145 
 x146  x147  x148  x149  x150 
End
